c nombre: 30
c densidad: 0.5
p edges 70 1187
e 1 5
e 1 6
e 1 8
e 1 9
e 1 14
e 1 15
e 1 17
e 1 18
e 1 20
e 1 23
e 1 24
e 1 25
e 1 28
e 1 29
e 1 32
e 1 33
e 1 34
e 1 35
e 1 36
e 1 37
e 1 38
e 1 39
e 1 42
e 1 43
e 1 47
e 1 51
e 1 53
e 1 54
e 1 59
e 1 61
e 1 63
e 1 66
e 1 67
e 1 68
e 1 69
e 2 6
e 2 8
e 2 9
e 2 12
e 2 16
e 2 18
e 2 19
e 2 21
e 2 22
e 2 24
e 2 25
e 2 31
e 2 32
e 2 33
e 2 34
e 2 36
e 2 39
e 2 41
e 2 42
e 2 44
e 2 49
e 2 52
e 2 53
e 2 54
e 2 56
e 2 59
e 2 61
e 2 62
e 2 65
e 2 67
e 2 69
e 2 70
e 3 6
e 3 9
e 3 10
e 3 11
e 3 13
e 3 14
e 3 15
e 3 17
e 3 19
e 3 20
e 3 21
e 3 23
e 3 25
e 3 26
e 3 28
e 3 30
e 3 31
e 3 33
e 3 34
e 3 38
e 3 42
e 3 44
e 3 45
e 3 46
e 3 48
e 3 50
e 3 51
e 3 52
e 3 55
e 3 56
e 3 59
e 3 63
e 3 64
e 3 65
e 3 66
e 3 69
e 4 6
e 4 9
e 4 12
e 4 13
e 4 15
e 4 16
e 4 18
e 4 19
e 4 23
e 4 24
e 4 26
e 4 28
e 4 29
e 4 31
e 4 32
e 4 34
e 4 36
e 4 38
e 4 41
e 4 43
e 4 44
e 4 45
e 4 46
e 4 48
e 4 51
e 4 56
e 4 58
e 4 61
e 4 65
e 4 67
e 4 69
e 4 70
e 5 7
e 5 11
e 5 12
e 5 13
e 5 14
e 5 15
e 5 16
e 5 20
e 5 21
e 5 22
e 5 28
e 5 29
e 5 31
e 5 32
e 5 34
e 5 35
e 5 38
e 5 44
e 5 45
e 5 47
e 5 49
e 5 50
e 5 51
e 5 52
e 5 53
e 5 55
e 5 56
e 5 59
e 5 60
e 5 61
e 5 63
e 5 64
e 5 65
e 5 66
e 5 67
e 5 69
e 6 7
e 6 8
e 6 10
e 6 14
e 6 16
e 6 17
e 6 18
e 6 21
e 6 25
e 6 26
e 6 29
e 6 31
e 6 32
e 6 34
e 6 36
e 6 38
e 6 41
e 6 44
e 6 47
e 6 48
e 6 53
e 6 55
e 6 59
e 6 62
e 6 63
e 6 66
e 6 69
e 7 8
e 7 10
e 7 13
e 7 14
e 7 16
e 7 20
e 7 24
e 7 25
e 7 28
e 7 29
e 7 31
e 7 34
e 7 36
e 7 38
e 7 39
e 7 43
e 7 45
e 7 46
e 7 51
e 7 52
e 7 53
e 7 57
e 7 58
e 7 59
e 7 61
e 7 63
e 7 65
e 7 68
e 7 69
e 7 70
e 8 13
e 8 16
e 8 19
e 8 21
e 8 22
e 8 25
e 8 26
e 8 27
e 8 30
e 8 31
e 8 33
e 8 36
e 8 39
e 8 40
e 8 43
e 8 44
e 8 46
e 8 47
e 8 48
e 8 50
e 8 51
e 8 56
e 8 61
e 8 62
e 8 64
e 8 66
e 8 67
e 8 69
e 8 70
e 9 12
e 9 17
e 9 18
e 9 20
e 9 21
e 9 23
e 9 24
e 9 25
e 9 26
e 9 32
e 9 33
e 9 34
e 9 36
e 9 37
e 9 38
e 9 41
e 9 42
e 9 44
e 9 45
e 9 47
e 9 48
e 9 51
e 9 53
e 9 54
e 9 62
e 9 67
e 9 69
e 10 11
e 10 12
e 10 14
e 10 20
e 10 22
e 10 23
e 10 24
e 10 26
e 10 28
e 10 29
e 10 30
e 10 35
e 10 37
e 10 38
e 10 39
e 10 40
e 10 45
e 10 49
e 10 50
e 10 51
e 10 52
e 10 54
e 10 55
e 10 56
e 10 58
e 10 59
e 10 62
e 10 63
e 10 67
e 10 68
e 10 69
e 11 13
e 11 18
e 11 19
e 11 27
e 11 30
e 11 31
e 11 32
e 11 33
e 11 37
e 11 38
e 11 39
e 11 43
e 11 48
e 11 50
e 11 53
e 11 55
e 11 59
e 11 60
e 11 61
e 11 63
e 11 64
e 11 65
e 11 66
e 11 67
e 12 13
e 12 14
e 12 18
e 12 19
e 12 22
e 12 27
e 12 28
e 12 29
e 12 31
e 12 34
e 12 36
e 12 38
e 12 39
e 12 40
e 12 41
e 12 46
e 12 47
e 12 49
e 12 54
e 12 55
e 12 57
e 12 58
e 12 59
e 12 61
e 12 62
e 12 66
e 12 67
e 12 69
e 12 70
e 13 15
e 13 16
e 13 17
e 13 18
e 13 19
e 13 20
e 13 21
e 13 26
e 13 30
e 13 32
e 13 35
e 13 36
e 13 37
e 13 38
e 13 39
e 13 40
e 13 41
e 13 45
e 13 46
e 13 47
e 13 48
e 13 49
e 13 50
e 13 52
e 13 53
e 13 54
e 13 55
e 13 59
e 13 61
e 13 62
e 13 66
e 13 67
e 13 68
e 13 69
e 13 70
e 14 15
e 14 18
e 14 21
e 14 23
e 14 24
e 14 28
e 14 29
e 14 32
e 14 34
e 14 38
e 14 44
e 14 46
e 14 48
e 14 49
e 14 51
e 14 52
e 14 53
e 14 54
e 14 56
e 14 57
e 14 59
e 14 62
e 14 64
e 14 65
e 14 67
e 14 68
e 14 69
e 15 19
e 15 21
e 15 22
e 15 26
e 15 30
e 15 34
e 15 35
e 15 37
e 15 42
e 15 44
e 15 45
e 15 48
e 15 49
e 15 50
e 15 54
e 15 55
e 15 56
e 15 58
e 15 59
e 15 60
e 15 62
e 15 63
e 15 64
e 15 67
e 15 69
e 16 17
e 16 18
e 16 19
e 16 20
e 16 21
e 16 27
e 16 31
e 16 33
e 16 37
e 16 38
e 16 40
e 16 42
e 16 44
e 16 46
e 16 48
e 16 49
e 16 50
e 16 51
e 16 52
e 16 54
e 16 55
e 16 56
e 16 60
e 16 61
e 16 63
e 16 66
e 16 67
e 17 18
e 17 19
e 17 21
e 17 24
e 17 27
e 17 29
e 17 31
e 17 32
e 17 35
e 17 36
e 17 43
e 17 46
e 17 47
e 17 49
e 17 52
e 17 54
e 17 56
e 17 57
e 17 60
e 17 62
e 17 63
e 17 66
e 17 67
e 17 68
e 17 69
e 18 22
e 18 25
e 18 26
e 18 27
e 18 29
e 18 30
e 18 37
e 18 38
e 18 39
e 18 40
e 18 41
e 18 44
e 18 45
e 18 47
e 18 48
e 18 50
e 18 51
e 18 52
e 18 53
e 18 58
e 18 59
e 18 61
e 18 62
e 18 63
e 18 66
e 18 68
e 18 69
e 18 70
e 19 20
e 19 23
e 19 27
e 19 28
e 19 29
e 19 31
e 19 33
e 19 35
e 19 39
e 19 40
e 19 41
e 19 44
e 19 46
e 19 49
e 19 51
e 19 52
e 19 55
e 19 57
e 19 61
e 19 65
e 20 21
e 20 24
e 20 26
e 20 27
e 20 29
e 20 35
e 20 36
e 20 37
e 20 42
e 20 43
e 20 44
e 20 46
e 20 47
e 20 48
e 20 49
e 20 51
e 20 56
e 20 58
e 20 59
e 20 60
e 20 62
e 20 66
e 20 67
e 21 22
e 21 23
e 21 24
e 21 25
e 21 26
e 21 30
e 21 31
e 21 32
e 21 33
e 21 36
e 21 37
e 21 38
e 21 42
e 21 43
e 21 46
e 21 49
e 21 50
e 21 53
e 21 55
e 21 57
e 21 58
e 21 60
e 21 61
e 21 63
e 21 65
e 21 66
e 22 23
e 22 26
e 22 27
e 22 28
e 22 29
e 22 31
e 22 33
e 22 39
e 22 40
e 22 43
e 22 45
e 22 49
e 22 50
e 22 51
e 22 56
e 22 58
e 22 60
e 22 61
e 22 64
e 22 66
e 22 69
e 22 70
e 23 27
e 23 29
e 23 31
e 23 32
e 23 33
e 23 34
e 23 35
e 23 36
e 23 37
e 23 40
e 23 43
e 23 44
e 23 46
e 23 47
e 23 55
e 23 59
e 23 60
e 23 61
e 23 63
e 23 65
e 23 68
e 23 70
e 24 26
e 24 30
e 24 31
e 24 32
e 24 33
e 24 35
e 24 37
e 24 39
e 24 43
e 24 44
e 24 48
e 24 49
e 24 50
e 24 53
e 24 54
e 24 55
e 24 60
e 24 61
e 24 64
e 24 68
e 24 70
e 25 27
e 25 28
e 25 29
e 25 31
e 25 32
e 25 33
e 25 34
e 25 38
e 25 41
e 25 44
e 25 45
e 25 46
e 25 47
e 25 48
e 25 50
e 25 52
e 25 53
e 25 56
e 25 58
e 25 59
e 25 62
e 25 63
e 25 64
e 25 65
e 25 68
e 25 69
e 26 27
e 26 28
e 26 29
e 26 32
e 26 37
e 26 38
e 26 40
e 26 41
e 26 43
e 26 45
e 26 49
e 26 51
e 26 52
e 26 53
e 26 54
e 26 56
e 26 63
e 26 64
e 26 65
e 26 68
e 27 30
e 27 31
e 27 35
e 27 36
e 27 38
e 27 40
e 27 45
e 27 48
e 27 49
e 27 50
e 27 51
e 27 52
e 27 54
e 27 55
e 27 56
e 27 57
e 27 60
e 27 61
e 27 64
e 27 66
e 27 67
e 27 69
e 27 70
e 28 34
e 28 35
e 28 37
e 28 38
e 28 39
e 28 45
e 28 48
e 28 49
e 28 50
e 28 51
e 28 53
e 28 55
e 28 57
e 28 58
e 28 60
e 28 61
e 28 66
e 28 68
e 28 69
e 29 31
e 29 33
e 29 34
e 29 36
e 29 39
e 29 40
e 29 42
e 29 44
e 29 45
e 29 50
e 29 52
e 29 55
e 29 57
e 29 58
e 29 59
e 29 60
e 29 62
e 29 64
e 29 65
e 29 66
e 29 68
e 29 70
e 30 33
e 30 34
e 30 35
e 30 37
e 30 39
e 30 42
e 30 43
e 30 46
e 30 48
e 30 49
e 30 50
e 30 52
e 30 53
e 30 54
e 30 57
e 30 58
e 30 59
e 30 60
e 30 65
e 30 67
e 30 68
e 31 36
e 31 38
e 31 39
e 31 42
e 31 43
e 31 44
e 31 49
e 31 50
e 31 52
e 31 54
e 31 55
e 31 64
e 31 65
e 32 34
e 32 35
e 32 36
e 32 37
e 32 38
e 32 40
e 32 44
e 32 45
e 32 46
e 32 48
e 32 50
e 32 51
e 32 53
e 32 55
e 32 56
e 32 57
e 32 61
e 32 65
e 32 66
e 32 67
e 32 69
e 33 34
e 33 38
e 33 42
e 33 44
e 33 45
e 33 48
e 33 49
e 33 54
e 33 55
e 33 57
e 33 58
e 33 60
e 33 61
e 33 64
e 33 66
e 33 68
e 34 35
e 34 37
e 34 38
e 34 39
e 34 44
e 34 46
e 34 48
e 34 50
e 34 51
e 34 52
e 34 53
e 34 56
e 34 57
e 34 58
e 34 59
e 34 62
e 34 63
e 34 64
e 34 66
e 34 69
e 35 36
e 35 37
e 35 39
e 35 40
e 35 41
e 35 43
e 35 46
e 35 48
e 35 49
e 35 52
e 35 57
e 35 63
e 35 64
e 35 65
e 35 66
e 35 68
e 35 70
e 36 37
e 36 38
e 36 39
e 36 41
e 36 42
e 36 45
e 36 46
e 36 51
e 36 52
e 36 53
e 36 56
e 36 57
e 36 58
e 36 59
e 36 62
e 36 63
e 36 66
e 36 68
e 36 69
e 36 70
e 37 40
e 37 42
e 37 43
e 37 45
e 37 46
e 37 47
e 37 50
e 37 52
e 37 53
e 37 54
e 37 56
e 37 57
e 37 58
e 37 59
e 37 61
e 37 63
e 37 66
e 38 39
e 38 43
e 38 44
e 38 48
e 38 50
e 38 52
e 38 53
e 38 54
e 38 59
e 38 60
e 38 61
e 38 62
e 38 64
e 38 67
e 38 68
e 38 69
e 39 40
e 39 41
e 39 42
e 39 43
e 39 44
e 39 45
e 39 50
e 39 51
e 39 55
e 39 56
e 39 57
e 39 58
e 39 60
e 39 63
e 39 65
e 39 67
e 39 69
e 40 42
e 40 44
e 40 45
e 40 46
e 40 47
e 40 48
e 40 51
e 40 55
e 40 57
e 40 59
e 40 61
e 40 63
e 40 64
e 40 67
e 40 70
e 41 42
e 41 44
e 41 45
e 41 46
e 41 48
e 41 49
e 41 55
e 41 57
e 41 58
e 41 60
e 41 62
e 41 63
e 41 64
e 41 68
e 41 70
e 42 43
e 42 46
e 42 47
e 42 49
e 42 51
e 42 52
e 42 53
e 42 54
e 42 55
e 42 56
e 42 57
e 42 60
e 42 61
e 42 62
e 42 65
e 42 69
e 43 44
e 43 46
e 43 53
e 43 54
e 43 55
e 43 56
e 43 58
e 43 61
e 43 62
e 43 65
e 43 67
e 43 68
e 43 69
e 44 47
e 44 49
e 44 50
e 44 52
e 44 53
e 44 58
e 44 59
e 44 62
e 44 64
e 44 65
e 44 66
e 45 46
e 45 47
e 45 48
e 45 49
e 45 50
e 45 52
e 45 53
e 45 60
e 45 63
e 45 67
e 45 68
e 46 47
e 46 48
e 46 49
e 46 52
e 46 55
e 46 56
e 46 60
e 46 63
e 46 64
e 46 65
e 46 69
e 47 49
e 47 51
e 47 53
e 47 56
e 47 58
e 47 59
e 47 61
e 47 62
e 47 65
e 47 69
e 47 70
e 48 50
e 48 51
e 48 52
e 48 54
e 48 57
e 48 58
e 48 59
e 48 60
e 48 66
e 48 68
e 48 70
e 49 51
e 49 52
e 49 53
e 49 54
e 49 57
e 49 59
e 49 61
e 49 66
e 49 68
e 49 69
e 49 70
e 50 51
e 50 56
e 50 58
e 50 59
e 50 69
e 50 70
e 51 55
e 51 56
e 51 58
e 51 59
e 51 60
e 51 61
e 51 63
e 51 64
e 51 66
e 52 53
e 52 60
e 52 61
e 52 64
e 52 65
e 52 66
e 52 67
e 52 68
e 53 54
e 53 55
e 53 56
e 53 59
e 53 62
e 53 64
e 53 65
e 53 69
e 53 70
e 54 55
e 54 60
e 54 61
e 54 62
e 54 65
e 54 68
e 55 56
e 55 61
e 55 62
e 55 63
e 55 65
e 55 67
e 55 69
e 56 57
e 56 58
e 56 61
e 56 62
e 56 63
e 56 64
e 56 67
e 56 68
e 56 69
e 56 70
e 57 58
e 57 59
e 57 63
e 57 65
e 57 66
e 57 69
e 58 59
e 58 60
e 58 61
e 58 63
e 58 64
e 58 66
e 58 67
e 59 60
e 59 64
e 59 65
e 59 67
e 59 70
e 60 62
e 60 64
e 60 65
e 60 67
e 60 68
e 61 62
e 61 64
e 61 65
e 61 69
e 61 70
e 62 63
e 62 66
e 62 67
e 62 69
e 62 70
e 63 64
e 63 65
e 63 68
e 63 69
e 63 70
e 64 65
e 64 66
e 64 69
e 65 66
e 65 68
e 65 69
e 66 67
e 66 70
e 67 68
e 67 69
e 68 70
e 69 70
